118 93 120 93 122 93 126 93 130 93 113 94 117 94 134 94 138 94 146 94 109 95 105 96 95 97 97 97 101 98 100 99 110 99 100 100 110 103 139 103 186 103 135 104 146 104 152 105 181 106 126 108 175 108 125 109 159 110 168 110 120 111 162 111 109 116 133 116 134 116 130 117 136 117 99 118 138 119 122 121 143 122 119 123 108 124 118 124 122 124 147 125 116 126 124 126 115 127 126 127 99 128 107 128 110 128 114 129 128 129 99 130 99 130 129 131 100 132 112 132 106 133 111 135 109 137 116 137 104 138 105 138 105 139 107 139 135 140 136 143 136 144 136 146 137 147 140 148 134 149 138 149 141 149 130 150 125 152 133 152 125 153 140 153 132 155 132 156 142 156 131 159 143 160 143 162 143 164 131 168 145 169 146 172 131 173 146 174 145 179 130 181
